p cnf 41 120
a 24 0
e 1 2 3 4 5 6 7 8 9 10 11 12 13 14 15 16 17 18 19 20 21 22 23 25 26 27 28 29 30 31 32 33 34 35 36 37 38 39 40 41 0
-5 3 0
-5 4 0
-3 -4 5 0
-6 -2 0
-6 -5 0
2 5 6 0
-7 1 0
-7 6 0
-1 -6 7 0
9 7 0
9 8 0
-7 -8 -9 0
10 7 0
10 -4 0
-7 4 -10 0
11 -8 0
11 4 0
8 -4 -11 0
12 -11 0
12 5 0
11 -5 -12 0
12 5 -13 0
-12 -5 -13 0
12 -5 13 0
-12 5 13 0
-14 -10 0
-14 -13 0
10 13 14 0
15 9 0
15 -14 0
-9 14 -15 0
16 5 0
16 2 0
-5 -2 -16 0
16 -8 -17 0
-16 8 -17 0
16 8 17 0
-16 -8 17 0
-19 18 0
-19 6 0
-18 -6 19 0
-20 -16 0
-20 -19 0
16 19 20 0
22 -3 0
22 -11 0
3 11 -22 0
-23 -22 0
-23 11 0
22 -11 23 0
-21 23 -24 0
21 -23 -24 0
-21 -23 24 0
21 23 24 0
26 25 0
26 -11 0
-25 11 -26 0
-24 26 -27 0
24 -26 -27 0
-24 -26 27 0
24 26 27 0
28 20 0
28 -27 0
-20 27 -28 0
17 -28 -29 0
-17 28 -29 0
17 28 29 0
-17 -28 29 0
-30 15 0
-30 29 0
-15 -29 30 0
16 7 -31 0
-16 -7 -31 0
16 -7 31 0
-16 7 31 0
32 30 0
32 31 0
-30 -31 -32 0
-6 22 -33 0
6 -22 -33 0
-6 -22 33 0
6 22 33 0
34 33 0
34 -19 0
-33 19 -34 0
-35 25 0
-35 22 0
-25 -22 35 0
-3 -22 -36 0
3 22 -36 0
-3 22 36 0
3 -22 36 0
-37 -35 0
-37 36 0
35 -36 37 0
-38 -6 0
-38 25 0
6 -25 38 0
37 -38 -39 0
-37 38 -39 0
37 38 39 0
-37 -38 39 0
-40 34 0
-40 -39 0
-34 39 40 0
-41 32 0
-41 40 0
-32 -40 41 0
28 24 41 -18 0
14 -10 29 15 4 0
-3 27 -40 0
-39 -33 -5 19 0
-11 -40 -25 -23 5 4 0
-17 -25 18 -14 11 -32 41 0
-18 20 -41 -25 14 -40 0
-39 -35 15 27 18 -16 0
-35 41 2 19 28 20 -25 0
8 6 24 -22 0
10 -41 18 -14 0
41 0
